c "205041.clq"
p edge 100 1344
e 1 17
e 1 18
e 1 19
e 1 20
e 1 21
e 1 24
e 1 25
e 1 29
e 1 30
e 1 32
e 1 35
e 1 42
e 1 45
e 1 49
e 1 59
e 1 71
e 1 72
e 1 77
e 1 83
e 1 89
e 1 90
e 1 92
e 1 100
e 2 17
e 2 18
e 2 19
e 2 20
e 2 21
e 2 22
e 2 23
e 2 24
e 2 25
e 2 26
e 2 37
e 2 39
e 2 40
e 2 42
e 2 43
e 2 46
e 2 58
e 2 61
e 2 66
e 2 68
e 2 77
e 2 80
e 2 82
e 2 83
e 2 97
e 3 17
e 3 18
e 3 19
e 3 20
e 3 21
e 3 23
e 3 27
e 3 30
e 3 32
e 3 36
e 3 54
e 3 62
e 3 69
e 3 78
e 3 80
e 3 84
e 4 17
e 4 18
e 4 19
e 4 20
e 4 23
e 4 24
e 4 25
e 4 26
e 4 27
e 4 29
e 4 31
e 4 33
e 4 47
e 4 63
e 4 76
e 4 77
e 4 82
e 4 98
e 5 17
e 5 18
e 5 20
e 5 21
e 5 22
e 5 23
e 5 24
e 5 25
e 5 26
e 5 27
e 5 28
e 5 29
e 5 32
e 5 33
e 5 34
e 5 36
e 5 37
e 5 45
e 5 52
e 5 53
e 5 54
e 5 60
e 5 70
e 5 72
e 5 76
e 5 80
e 5 82
e 5 87
e 5 95
e 5 99
e 6 17
e 6 18
e 6 19
e 6 20
e 6 21
e 6 22
e 6 23
e 6 24
e 6 25
e 6 26
e 6 28
e 6 34
e 6 35
e 6 38
e 6 39
e 6 40
e 6 41
e 6 43
e 6 46
e 6 61
e 6 64
e 6 65
e 6 67
e 6 80
e 6 96
e 7 17
e 7 18
e 7 19
e 7 20
e 7 21
e 7 22
e 7 23
e 7 25
e 7 30
e 7 32
e 7 44
e 7 45
e 7 47
e 7 53
e 7 67
e 7 70
e 7 71
e 7 83
e 7 87
e 7 89
e 7 96
e 8 17
e 8 18
e 8 19
e 8 20
e 8 22
e 8 23
e 8 24
e 8 30
e 8 34
e 8 36
e 8 39
e 8 42
e 8 53
e 8 74
e 8 86
e 8 87
e 9 17
e 9 18
e 9 20
e 9 21
e 9 23
e 9 27
e 9 28
e 9 29
e 9 30
e 9 31
e 9 32
e 9 33
e 9 34
e 9 35
e 9 36
e 9 37
e 9 38
e 9 41
e 9 42
e 9 43
e 9 49
e 9 50
e 9 54
e 9 57
e 9 65
e 9 72
e 9 81
e 9 88
e 9 92
e 9 95
e 10 17
e 10 18
e 10 19
e 10 20
e 10 21
e 10 22
e 10 25
e 10 26
e 10 27
e 10 28
e 10 31
e 10 32
e 10 35
e 10 37
e 10 38
e 10 40
e 10 41
e 10 42
e 10 44
e 10 46
e 10 47
e 10 54
e 10 55
e 10 58
e 10 68
e 10 69
e 10 73
e 10 77
e 10 84
e 10 95
e 11 17
e 11 18
e 11 19
e 11 20
e 11 21
e 11 22
e 11 23
e 11 24
e 11 25
e 11 26
e 11 27
e 11 28
e 11 29
e 11 30
e 11 31
e 11 32
e 11 33
e 11 36
e 11 38
e 11 39
e 11 41
e 11 43
e 11 44
e 11 50
e 11 51
e 11 53
e 11 56
e 11 62
e 11 63
e 11 64
e 11 68
e 11 69
e 11 72
e 11 73
e 11 75
e 11 76
e 11 80
e 11 86
e 11 88
e 12 17
e 12 19
e 12 22
e 12 23
e 12 25
e 12 28
e 12 29
e 12 32
e 12 41
e 12 47
e 12 48
e 12 57
e 12 63
e 12 66
e 12 76
e 12 77
e 12 82
e 12 97
e 13 17
e 13 18
e 13 19
e 13 21
e 13 22
e 13 26
e 13 31
e 13 41
e 13 43
e 13 54
e 13 55
e 13 64
e 13 70
e 13 84
e 14 17
e 14 18
e 14 19
e 14 24
e 14 33
e 14 34
e 14 37
e 14 43
e 14 53
e 14 54
e 14 59
e 14 75
e 14 78
e 14 93
e 14 94
e 14 99
e 15 17
e 15 18
e 15 19
e 15 20
e 15 21
e 15 22
e 15 23
e 15 24
e 15 27
e 15 30
e 15 35
e 15 36
e 15 37
e 15 42
e 15 45
e 15 46
e 15 48
e 15 50
e 15 55
e 15 56
e 15 60
e 15 61
e 15 65
e 15 66
e 15 67
e 15 68
e 15 72
e 15 78
e 15 96
e 15 100
e 16 17
e 16 18
e 16 19
e 16 20
e 16 21
e 16 22
e 16 24
e 16 26
e 16 27
e 16 29
e 16 30
e 16 33
e 16 34
e 16 40
e 16 44
e 16 49
e 16 52
e 16 53
e 16 55
e 16 56
e 16 59
e 16 64
e 16 68
e 16 71
e 16 73
e 16 76
e 16 80
e 16 86
e 16 89
e 16 92
e 16 93
e 16 96
e 17 18
e 17 19
e 17 20
e 17 21
e 17 22
e 17 23
e 17 24
e 17 25
e 17 26
e 17 27
e 17 28
e 17 29
e 17 31
e 17 33
e 17 34
e 17 35
e 17 37
e 17 41
e 17 42
e 17 43
e 17 44
e 17 45
e 17 47
e 17 48
e 17 49
e 17 50
e 17 52
e 17 54
e 17 57
e 17 58
e 17 61
e 17 65
e 17 66
e 17 67
e 17 71
e 17 72
e 17 73
e 17 75
e 17 77
e 17 85
e 17 88
e 17 89
e 17 91
e 17 92
e 17 93
e 17 98
e 17 99
e 18 19
e 18 20
e 18 21
e 18 22
e 18 23
e 18 25
e 18 26
e 18 27
e 18 28
e 18 30
e 18 33
e 18 34
e 18 37
e 18 38
e 18 39
e 18 40
e 18 41
e 18 42
e 18 43
e 18 44
e 18 45
e 18 47
e 18 50
e 18 51
e 18 52
e 18 53
e 18 55
e 18 57
e 18 61
e 18 63
e 18 64
e 18 68
e 18 69
e 18 70
e 18 78
e 18 79
e 18 80
e 18 81
e 18 84
e 18 85
e 18 86
e 18 88
e 18 91
e 18 92
e 18 98
e 18 99
e 19 20
e 19 21
e 19 22
e 19 23
e 19 24
e 19 25
e 19 28
e 19 29
e 19 30
e 19 32
e 19 33
e 19 36
e 19 39
e 19 41
e 19 43
e 19 44
e 19 46
e 19 48
e 19 50
e 19 51
e 19 57
e 19 58
e 19 59
e 19 60
e 19 61
e 19 63
e 19 64
e 19 66
e 19 71
e 19 73
e 19 74
e 19 79
e 19 81
e 19 92
e 19 93
e 19 94
e 19 95
e 19 97
e 20 21
e 20 22
e 20 23
e 20 24
e 20 25
e 20 26
e 20 27
e 20 28
e 20 29
e 20 31
e 20 32
e 20 33
e 20 34
e 20 36
e 20 37
e 20 41
e 20 46
e 20 47
e 20 49
e 20 50
e 20 51
e 20 52
e 20 53
e 20 54
e 20 56
e 20 57
e 20 58
e 20 63
e 20 64
e 20 65
e 20 70
e 20 71
e 20 73
e 20 75
e 20 78
e 20 79
e 20 83
e 20 84
e 20 90
e 20 91
e 20 95
e 20 99
e 21 22
e 21 23
e 21 24
e 21 25
e 21 26
e 21 27
e 21 28
e 21 29
e 21 30
e 21 31
e 21 33
e 21 34
e 21 35
e 21 37
e 21 41
e 21 48
e 21 49
e 21 50
e 21 51
e 21 56
e 21 58
e 21 61
e 21 63
e 21 65
e 21 68
e 21 71
e 21 73
e 21 74
e 21 75
e 21 77
e 21 82
e 21 84
e 21 85
e 21 86
e 21 88
e 21 93
e 21 96
e 22 24
e 22 26
e 22 27
e 22 28
e 22 32
e 22 34
e 22 38
e 22 39
e 22 40
e 22 45
e 22 47
e 22 51
e 22 54
e 22 59
e 22 63
e 22 79
e 22 87
e 22 89
e 22 90
e 22 93
e 22 94
e 22 98
e 22 99
e 22 100
e 23 24
e 23 25
e 23 26
e 23 27
e 23 28
e 23 29
e 23 30
e 23 31
e 23 33
e 23 36
e 23 37
e 23 39
e 23 40
e 23 43
e 23 45
e 23 51
e 23 53
e 23 56
e 23 58
e 23 62
e 23 65
e 23 68
e 23 70
e 23 73
e 23 77
e 23 82
e 23 83
e 23 84
e 23 85
e 23 90
e 23 92
e 23 98
e 23 99
e 23 100
e 24 25
e 24 26
e 24 27
e 24 28
e 24 29
e 24 30
e 24 31
e 24 35
e 24 36
e 24 37
e 24 38
e 24 40
e 24 44
e 24 45
e 24 46
e 24 54
e 24 55
e 24 56
e 24 59
e 24 60
e 24 62
e 24 66
e 24 69
e 24 74
e 24 83
e 24 89
e 24 92
e 24 96
e 25 26
e 25 27
e 25 28
e 25 29
e 25 31
e 25 32
e 25 33
e 25 34
e 25 35
e 25 36
e 25 38
e 25 39
e 25 40
e 25 41
e 25 42
e 25 44
e 25 47
e 25 49
e 25 52
e 25 53
e 25 55
e 25 60
e 25 61
e 25 62
e 25 67
e 25 68
e 25 70
e 25 76
e 25 85
e 25 87
e 25 95
e 25 100
e 26 28
e 26 30
e 26 31
e 26 32
e 26 33
e 26 34
e 26 36
e 26 38
e 26 41
e 26 43
e 26 46
e 26 47
e 26 48
e 26 52
e 26 53
e 26 54
e 26 56
e 26 57
e 26 59
e 26 62
e 26 63
e 26 68
e 26 70
e 26 73
e 26 82
e 26 87
e 26 96
e 26 98
e 27 29
e 27 31
e 27 32
e 27 34
e 27 35
e 27 37
e 27 40
e 27 43
e 27 44
e 27 46
e 27 48
e 27 49
e 27 52
e 27 53
e 27 56
e 27 57
e 27 62
e 27 69
e 27 70
e 27 71
e 27 74
e 27 83
e 27 85
e 27 87
e 27 89
e 27 96
e 27 98
e 28 29
e 28 30
e 28 31
e 28 32
e 28 33
e 28 35
e 28 36
e 28 37
e 28 38
e 28 40
e 28 45
e 28 46
e 28 52
e 28 53
e 28 54
e 28 59
e 28 61
e 28 64
e 28 67
e 28 76
e 28 77
e 28 94
e 28 99
e 29 30
e 29 31
e 29 36
e 29 37
e 29 38
e 29 41
e 29 46
e 29 48
e 29 49
e 29 50
e 29 51
e 29 58
e 29 59
e 29 63
e 29 64
e 29 65
e 29 66
e 29 72
e 29 75
e 29 81
e 29 87
e 29 89
e 29 97
e 29 99
e 30 31
e 30 35
e 30 36
e 30 38
e 30 39
e 30 42
e 30 43
e 30 45
e 30 46
e 30 49
e 30 51
e 30 55
e 30 58
e 30 73
e 30 83
e 30 84
e 30 91
e 31 32
e 31 33
e 31 34
e 31 35
e 31 38
e 31 42
e 31 43
e 31 45
e 31 46
e 31 49
e 31 50
e 31 52
e 31 53
e 31 54
e 31 55
e 31 56
e 31 57
e 31 59
e 31 61
e 31 62
e 31 65
e 31 67
e 31 73
e 31 83
e 31 90
e 31 91
e 31 96
e 31 97
e 32 35
e 32 36
e 32 38
e 32 39
e 32 40
e 32 42
e 32 49
e 32 50
e 32 51
e 32 54
e 32 55
e 32 57
e 32 61
e 32 62
e 32 68
e 32 69
e 32 72
e 32 74
e 32 79
e 32 84
e 32 87
e 32 91
e 32 95
e 32 97
e 32 99
e 33 34
e 33 35
e 33 37
e 33 38
e 33 39
e 33 40
e 33 47
e 33 48
e 33 49
e 33 52
e 33 57
e 33 58
e 33 59
e 33 76
e 33 77
e 33 90
e 33 91
e 33 94
e 33 98
e 33 99
e 34 35
e 34 39
e 34 40
e 34 45
e 34 46
e 34 51
e 34 52
e 34 55
e 34 56
e 34 63
e 34 67
e 34 74
e 34 76
e 34 78
e 34 82
e 34 87
e 34 88
e 34 90
e 34 96
e 34 100
e 35 39
e 35 42
e 35 44
e 35 48
e 35 50
e 35 51
e 35 56
e 35 60
e 35 61
e 35 73
e 35 78
e 35 79
e 35 86
e 35 89
e 35 95
e 35 99
e 36 40
e 36 42
e 36 44
e 36 45
e 36 48
e 36 52
e 36 58
e 36 64
e 36 67
e 36 69
e 36 77
e 36 80
e 36 81
e 36 86
e 36 91
e 36 92
e 36 100
e 37 38
e 37 39
e 37 41
e 37 43
e 37 44
e 37 45
e 37 48
e 37 53
e 37 60
e 37 64
e 37 68
e 37 70
e 37 71
e 37 80
e 37 81
e 37 88
e 37 97
e 37 98
e 38 39
e 38 59
e 38 60
e 38 69
e 38 71
e 38 76
e 38 77
e 38 79
e 38 83
e 38 85
e 38 91
e 39 40
e 39 41
e 39 42
e 39 43
e 39 44
e 39 46
e 39 47
e 39 48
e 39 49
e 39 50
e 39 55
e 39 57
e 39 58
e 39 62
e 39 63
e 39 65
e 39 73
e 39 75
e 39 79
e 39 83
e 39 88
e 39 89
e 39 91
e 39 94
e 39 98
e 39 100
e 40 44
e 40 46
e 40 47
e 40 50
e 40 60
e 40 61
e 40 62
e 40 66
e 40 71
e 40 72
e 40 76
e 40 80
e 40 82
e 40 83
e 41 42
e 41 44
e 41 47
e 41 48
e 41 49
e 41 54
e 41 56
e 41 60
e 41 64
e 41 78
e 41 81
e 41 85
e 41 92
e 42 47
e 42 48
e 42 51
e 42 57
e 42 58
e 42 64
e 42 78
e 42 80
e 42 84
e 42 85
e 42 93
e 42 94
e 42 95
e 43 52
e 43 57
e 43 67
e 43 68
e 43 72
e 43 74
e 43 84
e 43 85
e 43 86
e 43 94
e 44 45
e 44 51
e 44 60
e 44 66
e 44 69
e 44 75
e 44 78
e 44 79
e 44 91
e 44 93
e 44 100
e 45 61
e 45 76
e 45 80
e 45 84
e 45 85
e 45 87
e 45 91
e 45 94
e 45 100
e 46 47
e 46 48
e 46 49
e 46 50
e 46 55
e 46 69
e 46 74
e 46 79
e 46 82
e 46 86
e 46 89
e 46 95
e 47 50
e 47 51
e 47 53
e 47 58
e 47 59
e 47 60
e 47 63
e 47 65
e 47 72
e 47 73
e 47 81
e 47 86
e 47 93
e 47 94
e 48 52
e 48 56
e 48 57
e 48 60
e 48 62
e 48 66
e 48 74
e 48 80
e 48 84
e 48 87
e 48 90
e 48 92
e 49 56
e 49 70
e 49 72
e 49 73
e 49 79
e 49 80
e 49 83
e 49 90
e 49 99
e 50 51
e 50 56
e 50 57
e 50 66
e 50 72
e 50 73
e 50 75
e 50 82
e 50 86
e 50 96
e 51 52
e 51 54
e 51 55
e 51 59
e 51 61
e 51 63
e 51 69
e 51 74
e 51 75
e 51 78
e 51 81
e 51 83
e 51 88
e 52 58
e 52 59
e 52 66
e 52 71
e 52 75
e 52 81
e 52 97
e 53 55
e 53 59
e 53 63
e 53 67
e 53 74
e 53 75
e 53 76
e 53 78
e 53 81
e 53 87
e 53 88
e 53 90
e 54 55
e 54 64
e 54 77
e 54 79
e 54 85
e 54 86
e 54 94
e 54 96
e 55 58
e 55 65
e 55 70
e 55 72
e 55 82
e 55 91
e 55 92
e 56 60
e 56 65
e 56 67
e 56 74
e 56 79
e 56 81
e 56 82
e 56 85
e 56 95
e 56 97
e 56 99
e 57 61
e 57 62
e 57 63
e 57 65
e 57 67
e 57 69
e 57 70
e 57 71
e 57 72
e 57 78
e 57 89
e 57 92
e 57 93
e 57 94
e 58 60
e 58 62
e 58 65
e 58 66
e 58 71
e 58 72
e 58 81
e 59 60
e 59 66
e 59 70
e 59 89
e 60 62
e 60 66
e 60 76
e 60 98
e 61 62
e 61 64
e 61 67
e 61 68
e 61 69
e 61 76
e 61 77
e 61 80
e 61 82
e 61 86
e 61 91
e 61 99
e 62 64
e 62 67
e 62 70
e 62 74
e 62 75
e 62 79
e 62 85
e 62 90
e 62 94
e 62 97
e 63 66
e 63 67
e 63 68
e 63 74
e 63 75
e 63 81
e 63 90
e 64 65
e 64 70
e 64 79
e 64 96
e 64 97
e 65 69
e 65 71
e 65 81
e 65 87
e 65 90
e 66 68
e 66 77
e 66 78
e 66 88
e 66 92
e 66 93
e 66 94
e 66 100
e 67 74
e 67 88
e 67 96
e 68 69
e 68 71
e 68 78
e 68 83
e 68 90
e 68 91
e 68 94
e 68 95
e 69 82
e 69 84
e 70 75
e 70 84
e 70 87
e 71 79
e 71 97
e 72 77
e 72 88
e 72 91
e 72 97
e 73 75
e 73 78
e 74 76
e 74 85
e 74 86
e 75 80
e 75 81
e 75 93
e 75 98
e 76 83
e 76 86
e 77 95
e 77 98
e 78 84
e 78 88
e 78 90
e 79 98
e 80 82
e 80 87
e 80 88
e 80 93
e 80 100
e 81 92
e 81 93
e 81 100
e 82 86
e 82 89
e 82 96
e 82 100
e 83 95
e 84 85
e 84 88
e 85 93
e 85 95
e 86 89
e 86 92
e 86 93
e 86 98
e 87 98
e 88 89
e 89 90
e 90 97
e 91 100
e 93 94
e 93 95
e 93 96
e 94 100
e 95 97
e 96 97
e 97 99
